3 10 6 8 8 1 -1 -1 9 -1 
3 2 7 4 0 8 6 1 10 -1 
2 8 1 9 8 1 9 8 2 -1 
5 10 7 2 6 1 5 3 4 -1 
7 9 5 2 5 1 4 7 0 -1 
7 9 8 7 6 7 9 10 6 -1 
3 2 3 5 7 3 4 0 2 -1 
9 3 2 10 8 8 -1 3 1 -1 
7 5 10 2 9 7 -1 6 7 -1 
-1 10 4 -1 1 8 2 7 8 -1 
8 6 3 6 -1 0 8 8 6 -1 
0 10 3 -1 6 6 10 2 8 -1 
-1 7 4 3 10 3 9 1 9 -1 
4 6 -1 9 3 -1 -1 7 4 -1 
-1 6 -1 2 -1 8 -1 5 6 -1 
7 5 3 0 5 3 0 6 0 -1 
8 6 10 8 1 3 3 7 8 -1 
7 4 0 5 -1 9 6 7 9 -1 
1 4 -1 8 10 7 0 0 10 -1 
7 1 -1 5 1 -1 3 2 7 -1 
0 0 1 1 9 7 7 2 8 -1 
9 9 9 10 4 -1 1 8 1 -1 
10 10 8 -1 4 9 0 3 3 -1 
7 6 10 5 0 1 9 4 7 -1 
-1 9 9 5 5 -1 9 10 1 -1 
-1 3 2 8 -1 2 6 2 10 -1 
5 8 2 7 7 0 8 3 10 -1 
-1 7 1 8 9 3 7 6 9 -1 
6 3 6 6 8 9 5 9 3 -1 
4 9 10 7 9 9 9 3 1 -1 
4 8 3 4 -1 -1 6 7 4 -1 
9 9 1 2 -1 7 8 1 8 -1 
8 3 3 0 3 0 1 5 8 -1 
2 -1 4 2 3 -1 6 4 -1 -1 
2 -1 7 3 0 9 0 5 4 -1 
8 4 -1 9 8 1 0 1 5 -1 
0 1 0 4 -1 10 1 5 3 -1 
9 3 5 2 10 7 2 4 -1 -1 
9 8 6 7 9 4 6 0 4 -1 
6 10 5 5 3 9 2 2 4 -1 
3 -1 -1 6 3 2 1 9 -1 -1 
10 8 4 5 0 5 3 10 6 -1 
3 3 2 9 4 6 1 8 -1 -1 
0 9 9 9 8 7 -1 10 2 -1 
7 7 5 0 7 6 -1 4 -1 -1 
0 -1 1 3 8 -1 1 3 2 -1 
9 10 6 0 6 3 4 3 10 -1 
-1 10 9 10 3 3 1 -1 6 -1 
7 9 9 2 10 5 8 4 -1 -1 
10 9 -1 9 1 5 0 2 1 -1 
